#p external=extuffex opt=(tight,nomicro) nosym test

Gaussian Test job 726:
Test of External procedure

0 1
6        .000000     .000000     .000000
6        .000000     .000000    1.566200
6       1.473182     .000000    -.492419
6       -.736591   -1.275813    -.492419
6       -.736591    1.275813    -.492419
6       2.412644    -.869263     .097427
6       3.741978    -.900299    -.333237
6       4.167062    -.063464   -1.372126
6       3.245068     .795956   -1.975494
6       1.913283     .825913   -1.540967
1       2.104823   -1.538161     .893372
1       4.444197   -1.578833     .141800
1       5.199639    -.084597   -1.706264
1       3.556903    1.447801   -2.785937
1       1.215276    1.500721   -2.021098
6       -.453518    2.524042     .097427
6      -1.091307    3.690798    -.333237
6      -2.028569    3.640513   -1.372126
6      -2.311852    2.412333   -1.975494
6      -1.671903    1.243996   -1.540967
1        .279675    2.591911     .893372
1       -.854789    4.638204     .141800
1      -2.526556    4.545318   -1.706264
1      -3.032284    2.356467   -2.785937
1      -1.907300     .302099   -2.021098
6      -1.959126   -1.654779     .097427
6      -2.650671   -2.790499    -.333237
6      -2.138492   -3.577049   -1.372126
6       -.933216   -3.208289   -1.975494
6       -.241380   -2.069908   -1.540967   
1      -2.384498   -1.053750     .893372
1      -3.589408   -3.059371     .141800
1      -2.673082   -4.460721   -1.706264 
1       -.524619   -3.804269   -2.785937
1        .692024   -1.802820   -2.021098 
1       -.996673     .221850    1.956448   
1        .690464     .752219    1.956448
1        .306209    -.974069    1.956448

