#p rhf/sto-3g scrf freq=numer polar

Gaussian Test Job 218:
HeH+ scrf/sto-3g polar freq=numer (a0=1.2, epsilon=50.0) 

1 1
He  0.0  0.0  1.0 
H   0.0  0.0  2.0

  1.2          50.0 

