#p pbeh1pbe/6-31g* test opt
 
Gaussian Test Job 702:
water pbeh1pbe opt

0 1
 o
 h   1 ho2     
 h   1 ho3        2 hoh3      
 
ho2         0.950000
ho3         0.950000
hoh3        109.471
 
 
 
 
