#P TEST RMP2=full/3-21G force

Gaussian Test Job 35
Water mp2/3-21g gradient

0 1
O
H 1 R
H 1 R 2 A

R 0.96
A 109.471221

