#p dreiding opt test

Gaussian Test Job 595 (Part 1):
propene test, dreiding

0 1
C    1.359  3.150  0.000
C    1.359  1.824  0.000
H    2.283  3.743  0.000
H    0.435  3.743  0.000
H    0.435  1.230  0.000
C    2.655  0.991  0.000
H    2.682  0.374  0.873
H    2.682  0.374 -0.873
H    3.500  1.647  0.000


--Link1--
#p uff opt test

Gaussian Test Job 595 (Part 2):
propene test, uff

0 1
C    1.359  3.150  0.000
C    1.359  1.824  0.000
H    2.283  3.743  0.000
H    0.435  3.743  0.000
H    0.435  1.230  0.000
C    2.655  0.991  0.000
H    2.682  0.374  0.873
H    2.682  0.374 -0.873
H    3.500  1.647  0.000






