#p rmp2/3-21g test opt=calchffc optcyc=2

Gaussian Test Job 78
water mp2/3-21g with calcfc

0 1
o
h 1 r
h 1 r 2 a

r .9888
a 105.1678


