%chk=test0902-neu
#P B3LYP/6-31+g(d,p) Int=UltraFine Freq=SaveNM Test

Gaussian Test Job 902 (Part 1):
adenine neutral (initial state)

0 1
 N    -2.7311318725    4.3023396951    -9.2881645631
 C    -3.9042254069    4.6487551542    -8.6467667352
 N    -3.954140701     4.2402892079    -7.4007818898
 C    -2.7461644695    3.5884875111    -7.2106018078
 C    -1.9661024252    3.6127796479    -8.3722368306
 C    -2.1796763081    2.926295335     -6.0998948603
 N    -0.9593746731    2.3745909811    -6.2303171695
 C    -0.3279601589    2.4791849892    -7.412617757
 N    -0.7495961429    3.0759309509    -8.5326910114
 H    -2.4703480455    4.5076362832   -10.241756284
 H    -4.6837120892    5.2022539502    -9.1524397343
 N    -2.816074875     2.8335250947    -4.9077572871
 H    -3.7509150566    3.1932198558    -4.8008821204
 H    -2.3858137159    2.307249315     -4.1637832352
 H     0.6539716004    2.0154435788    -7.4588936241

--Link1--
%chk=test0902-cat
#P B3LYP/6-31+g(d,p) Int=UltraFine Freq=SaveNM Test

Gaussian Test Job 902 (Part 2):
adenine cation (final state)

1 2
 N   -2.7362803729    4.3147610947    -9.3070809926
 C   -3.8865251925    4.6485697843    -8.6738251316
 N   -3.9407296036    4.2240836877    -7.3955378589
 C   -2.772314081     3.5932762601    -7.2114029293
 C   -1.9612031428    3.616515551     -8.3916980208
 C   -2.1905979523    2.9143985945    -6.0858867977
 N   -0.9560959564    2.3626614869    -6.2187862097
 C   -0.3331857544    2.4686919301    -7.3753167943
 N   -0.776113703     3.0903940152    -8.5289165696
 H   -2.4821736207    4.5299810414   -10.2657857869
 H   -4.6791630306    5.2035677763    -9.1592921873
 N   -2.8141695485    2.8062601065    -4.9220195171
 H   -3.7374659119    3.2033718871    -4.7788335078
 H   -2.3565038573    2.3148029999    -4.1588089001
 H    0.6512573879    2.0166453342    -7.4463937062

--Link1--
%chk=test0902-neu
%nosave
#P Freq=(ReadFC,FC,ReadFCHT,VibRot) Geom=Check NoSymm

Gaussian Test Job 902 (Part 3):
Adenine photoionization

0,1

SPECMIN=-500 SPECMAX=+5000 SPECHWHM=50 SPECRES=1 PRTMAT=12 PRTINT=0.5 MAXC1=30 MAXC2=20

test0902-cat.chk

