%chk=test0969
#p B2PLYP=semidirect/gen force test int=ultrafine

Gaussian Test Job 969 (Part 1)
O(NPr)2 B2PLYP forces

0,1
O    0.000000000000      0.000000000000      0.401387998267
C    0.000000000000      1.175114168313     -0.381655786087
H    0.889819416412      1.201715042451     -1.034838910550
H   -0.889819416412      1.201715042451     -1.034838910550
C    0.000000000000     -1.175114168313     -0.381655786087
H   -0.889819416412     -1.201715042451     -1.034838910550
H    0.889819416412     -1.201715042451     -1.034838910550
C    0.000000000000      2.378884824633      0.551155629177
H   -0.883517383715      2.320645422544      1.194832995849
H    0.883517383715      2.320645422544      1.194832995849
C    0.000000000000     -2.378884824633      0.551155629177
H    0.883517383715     -2.320645422544      1.194832995849
H   -0.883517383715     -2.320645422544      1.194832995849
C    0.000000000000      3.707148969671     -0.239339550892
H   -0.887018899418      3.776759220319     -0.876580259800
H    0.000000000000      4.562622595668      0.441102702447
H    0.887018899418      3.776759220319     -0.876580259800
C    0.000000000000     -3.707148969671     -0.239339550892
H    0.887018899418     -3.776759220319     -0.876580259800
H    0.000000000000     -4.562622595668      0.441102702447
H   -0.887018899418     -3.776759220319     -0.876580259800

o 0
6-31g*
****
c h 0
3-21g
****
2 5
d 1
0.8 1.0
****

--Link1--
%chk=test0969
#p B2PLYP=semidirect/chkbas force test geom=check guess=read fmm int=ultrafine

Gaussian Test Job 969 (Part 2)
O(NPr)2 B2PLYP forces, with FMM

0,1

--Link1--
%chk=test0969
#p B2PLYP=semidirect/chkbas freq test geom=check guess=read int=ultrafine

Gaussian Test Job 969 (Part 3)
O(NPr)2 B2PLYP frequencies

0,1

--Link1--
%chk=test0969
%nosave
#p B2PLYP=semidirect/chkbas freq test geom=check guess=read fmm int=ultrafine

Gaussian Test Job 969 (Part 4)
O(NPr)2 B2PLYP frequencies, with FMM

0,1

