#p test hf cc-pvqz 6d 10f guess(noorth,mocheck,nwcard) nosymm

Gaussian Test Job 1039:
He atom test of nwcards

0  1
he

1 35 35
    0.160462724411759E+00    0.308072915942645E+00    0.450551212964732E+00
    0.239486637171240E+00   -0.354480068107754E-17    0.409846726025330E-17
   -0.779723879031624E-18   -0.140777940211117E-16    0.375046799227271E-18
    0.554758961448206E-18   -0.269800866857421E-16    0.239409117218629E-16
   -0.185459479830916E-16    0.314382822976996E-03   -0.132681503292828E-21
   -0.463170698169859E-21    0.314382822976996E-03   -0.129262710829591E-20
    0.314382822977023E-03    0.779420819012231E-03    0.880207363011122E-21
    0.154299020574962E-20    0.779420819012189E-03    0.442512337472837E-20
    0.779420819012050E-03   -0.290157225903856E-17    0.590418417847143E-17
   -0.279239663196590E-17   -0.120794461650775E-17   -0.593776042760273E-22
   -0.120792553940397E-17    0.102980474033658E-16   -0.279232426169890E-17
    0.590402356688432E-17   -0.162037740690945E-17
    0.165630776453007E-01   -0.441322404191788E+00    0.290942710635867E+01
   -0.204555250207599E+01    0.156569663314414E-15    0.222396530474783E-15
   -0.521339487648093E-16   -0.545753552319710E-15   -0.758445556791618E-15
    0.181901986451069E-15   -0.418116123678847E-16    0.213161525735443E-16
   -0.287280758116527E-16   -0.325765570887421E-01   -0.174378368261274E-17
   -0.331618254092185E-17   -0.325765570887421E-01    0.214965121170789E-17
   -0.325765570887419E-01   -0.396299949722041E+00   -0.555137166653785E-17
    0.457013567956117E-17   -0.396299949722041E+00   -0.915509945118936E-17
   -0.396299949722042E+00    0.285403500281620E-15    0.403913448606550E-15
   -0.920446965826203E-16    0.285757250671896E-15   -0.137741894690337E-18
    0.285901213789205E-15    0.403244640911645E-15   -0.919936021377382E-16
    0.403944552932392E-15   -0.905647192862774E-16
   -0.176698336411552E-16   -0.170061053301832E-15    0.535452518849733E-15
   -0.174508764045257E-15    0.126093943239186E-02   -0.378211111363026E-02
    0.327757573976597E-01   -0.497824119051513E-02    0.149319315815729E-01
   -0.129400049943612E+00    0.420892189457176E-01   -0.126244051577223E+00
    0.109403036639526E+01   -0.350443550592984E-16   -0.329675165573817E-16
   -0.282864417111669E-16    0.148470606083195E-16    0.887256459619698E-16
   -0.889019549207284E-17   -0.455361155614619E-16    0.183985327416783E-15
    0.133826047791491E-15   -0.962680833292661E-16   -0.285045926056497E-15
   -0.140726913692702E-15   -0.952965959326971E-03    0.285836341785724E-02
   -0.247705641434964E-01   -0.952965959326675E-03   -0.267952460773150E-15
   -0.952965959326915E-03    0.285836341785749E-02   -0.247705641434960E-01
    0.285836341785717E-02   -0.247705641434984E-01
    0.109752462048396E-16   -0.449150215914332E-16    0.823911000682760E-16
   -0.813368473913372E-16   -0.306846266182604E-02    0.326440834363459E-01
    0.388496579289094E-02    0.121144178873730E-01   -0.128880195681710E+00
   -0.153380061223302E-01   -0.102422997871851E+00    0.108963518765415E+01
    0.129677264151749E+00    0.233816228609055E-16    0.140597921419841E-16
    0.322467820386227E-16    0.307906186765585E-17   -0.101731050483913E-15
   -0.645347327161694E-17   -0.712459379497043E-17   -0.262569566953332E-15
   -0.388727293064650E-16   -0.724125536468776E-16    0.708655325166744E-16
    0.256818570428318E-16    0.231901738423921E-02   -0.246710504003076E-01
   -0.293609673761516E-02    0.231901738423917E-02    0.207667150186654E-15
    0.231901738423880E-02   -0.246710504003096E-01   -0.293609673761511E-02
   -0.246710504003075E-01   -0.293609673761541E-02
    0.152973425520118E-16    0.148605631661658E-15    0.696626699770532E-16
   -0.233966079639692E-15    0.328502537944354E-01    0.319437910134539E-02
   -0.895194680542967E-03   -0.129694164808648E+00   -0.126115412143730E-01
    0.353426573690041E-02    0.109651700062540E+01    0.106625994824466E+00
   -0.298809315820416E-01   -0.136442239815981E-15   -0.105094227369832E-15
    0.463944827921601E-16    0.517944508109449E-16   -0.336858486222961E-16
    0.531408262686021E-16    0.278286540155770E-15    0.178569146698659E-15
   -0.413277576552727E-16   -0.164495678921112E-15   -0.771090986369166E-16
   -0.124444090071008E-15   -0.248268654442659E-01   -0.241417983018946E-02
    0.676551177329917E-03   -0.248268654442632E-01    0.141103046121128E-15
   -0.248268654442630E-01   -0.241417983018954E-02    0.676551177330227E-03
   -0.241417983018934E-02    0.676551177329957E-03
   -0.309806948533001E+00   -0.254550798784872E+01    0.668677219928507E+01
   -0.169609671380546E+01    0.794885908507317E-15    0.801387314194869E-15
    0.462146158486372E-15   -0.275735694145556E-14   -0.274716499892261E-14
   -0.158931226091937E-14    0.367560013657080E-15    0.185233721562928E-15
   -0.464618720108853E-16   -0.848473081078482E-01   -0.237361368866973E-17
   -0.126678967543699E-16   -0.848473081078484E-01   -0.260923257957140E-16
   -0.848473081078485E-01   -0.130652312726298E+01   -0.369142701752006E-16
    0.101143176097781E-15   -0.130652312726298E+01    0.502912913149664E-16
   -0.130652312726298E+01    0.138800918116169E-14    0.144239501226478E-14
    0.831662865068111E-15    0.139511047191861E-14    0.293636409752576E-20
    0.139516056470448E-14    0.144149405216958E-14    0.830609765278493E-15
    0.144464723756278E-14    0.838729226698853E-15
   -0.322090600291904E-15    0.793087415309156E-15    0.484887481971186E-14
   -0.309529339579624E-15    0.166978935994451E-15    0.853043017732031E-17
   -0.208231600533469E-16    0.128241249210201E-14    0.108312634999077E-14
   -0.158413738053485E-14   -0.166720830198001E-14   -0.758912341391508E-15
    0.975613532984524E-15    0.280004726186958E-01    0.338851929104779E-01
   -0.127396461691500E+00   -0.276926606765916E-02    0.126602889471540E+00
   -0.252312065510379E-01   -0.268173136834198E+00   -0.324533753368401E+00
    0.122013328912795E+01    0.265225083235445E-01   -0.121253289057650E+01
    0.241650628510647E+00    0.107944200724238E-14    0.366373524560761E-15
   -0.581504866262299E-15    0.128688468755749E-14    0.121364779011845E-17
    0.743795965504308E-15   -0.140987915971786E-15    0.124942503607155E-15
    0.116023530194444E-15   -0.384903001368000E-15
    0.111217363149801E-14   -0.210987962432534E-14   -0.119694424007153E-13
    0.121079945266842E-14   -0.118553476497517E-15   -0.655090146098565E-16
    0.125113435371610E-15   -0.149821159460573E-14   -0.111713648039520E-14
    0.166269591810461E-14    0.989412927619893E-15    0.166653907398228E-14
   -0.231320333929223E-14   -0.403029303131298E-01   -0.131156058941463E+00
   -0.965505766147492E-01   -0.126580834252467E-01   -0.236686377678351E-01
    0.529610137383800E-01    0.385999314828198E+00    0.125614064519961E+01
    0.924708355695366E+00    0.121232165781058E+00    0.226685203540261E+00
   -0.507231480609241E+00   -0.611879230115571E-15   -0.891147023464851E-15
    0.780715614280380E-15   -0.465980591804335E-15    0.986913129383618E-16
   -0.369590449854270E-15   -0.577318067371175E-15    0.925300609870722E-15
   -0.297154153478150E-15    0.112601982340228E-14
   -0.165707523713908E-14    0.649109983718117E-14    0.336726344449592E-14
    0.273744017261609E-15   -0.104820393791093E-15   -0.802659051580897E-16
   -0.996566762408772E-16   -0.372044897933762E-14   -0.690355639707424E-15
    0.305410708327554E-15    0.287730106857697E-14    0.131425702293503E-14
   -0.320623531139047E-16   -0.737380405200658E-02   -0.958831571224535E-01
    0.242051570345048E-01    0.837139403569216E-01    0.265156309000259E-01
   -0.763401363049197E-01    0.706222423440989E-01    0.918316178632123E+00
   -0.231823690189188E+00   -0.801766109021920E+00   -0.253952138966743E+00
    0.731143866677813E+00   -0.933310781202886E-15   -0.114276209812940E-14
   -0.771499867917077E-15   -0.877195765459218E-15   -0.164657207509203E-15
   -0.104075733637237E-14   -0.786643013924253E-15   -0.425935352043787E-15
   -0.695602617036513E-15    0.331878601214967E-17
   -0.877275019173998E-15    0.205979813224805E-14    0.995695196979013E-14
   -0.935978031067956E-15    0.193685571210977E-15    0.128318503413358E-15
    0.124042408394632E-15    0.234713969294025E-14    0.107018734746165E-14
    0.158860044695515E-14   -0.211847999926865E-14   -0.142708678540903E-14
   -0.137674433324654E-14    0.311458779235017E-01    0.353159746419640E-01
   -0.958795411540060E-01    0.158169235527230E-01   -0.137736629322503E+00
   -0.469628014762276E-01   -0.298298100033628E+00   -0.338236994391613E+00
    0.918281546873775E+00   -0.151485800327835E+00    0.131916573142845E+01
    0.449783900361450E+00    0.112928668572188E-14    0.957525445794923E-15
    0.115696857485215E-14    0.938098950782936E-15    0.422175956670421E-15
    0.136657083445057E-14    0.580590378785610E-15    0.872490333833586E-15
    0.514177156020027E-15    0.603650440713804E-15
   -0.224932808304757E-15    0.232884744132946E-14   -0.112689670978419E-13
    0.134043098422259E-14   -0.225212571716715E-15   -0.272750643901198E-16
    0.764654106136945E-16   -0.360092958026524E-15   -0.647917649449895E-15
    0.474020259240994E-15    0.702387273418999E-15    0.731886642157333E-16
   -0.571618069982075E-15   -0.930315367209269E-01    0.864410698869981E-01
   -0.305340172333232E-01    0.682756427275975E-01    0.144111234604702E-03
    0.247558939933297E-01    0.891004925763228E+00   -0.827885056748007E+00
    0.292438034640253E+00   -0.653906579684119E+00   -0.138021819714475E-02
   -0.237098346079096E+00   -0.110012700380960E-14   -0.528110274643152E-15
   -0.495739075513751E-15   -0.752335278256146E-15   -0.691680389618787E-15
   -0.112368989621059E-14    0.658175676433132E-16   -0.325870222249965E-15
    0.318377012136062E-15    0.652100289665113E-15
    0.132620426544223E-15    0.984218683209406E-15   -0.672130348695289E-14
    0.134589184904714E-14   -0.564385337736133E-01    0.192164180162615E-01
   -0.111910859609873E-01   -0.721078841281754E+00    0.245515811809191E+00
   -0.142981306527200E+00    0.776838137652684E+00   -0.264500960354237E+00
    0.154037707838307E+00    0.418690664582399E-15    0.573462816130441E-15
   -0.264874887666026E-15   -0.154773060038728E-15   -0.486874243652637E-15
    0.585609325618545E-15   -0.120895456478617E-14   -0.524766558092840E-14
    0.482737148292620E-14    0.554402562104314E-14    0.310600046613378E-14
    0.196667737560871E-14   -0.345946276553679E+00    0.117789173760073E+00
   -0.685970073978965E-01   -0.345946276553679E+00    0.166908668429529E-15
   -0.345946276553679E+00    0.117789173760073E+00   -0.685970073978963E-01
    0.117789173760074E+00   -0.685970073978964E-01
   -0.273503759289326E-15    0.592221561760193E-16    0.279968029370187E-14
   -0.475287982907073E-15   -0.131018827196428E-01   -0.534013401774422E-01
   -0.256214120869982E-01   -0.167394327570388E+00   -0.682274572413495E+00
   -0.327348300963973E+00    0.180338529213037E+00    0.735033227794290E+00
    0.352661359515991E+00   -0.250921955011547E-16    0.152742383908420E-15
   -0.451793084682921E-15   -0.407238661180447E-15   -0.441739723874216E-15
   -0.821395483538132E-16   -0.328524016583914E-14   -0.396132316817094E-14
    0.342804519478753E-14    0.959010231424267E-15    0.462450162105142E-14
   -0.688039156986235E-15   -0.803094488755704E-01   -0.327329460248979E+00
   -0.157049298039831E+00   -0.803094488755709E-01    0.484516416817227E-15
   -0.803094488755711E-01   -0.327329460248978E+00   -0.157049298039830E+00
   -0.327329460248979E+00   -0.157049298039830E+00
   -0.278950599292083E-17   -0.557247655912125E-15    0.302517109422802E-14
   -0.570505711847725E-15    0.179680771247879E-01    0.214206761507536E-01
   -0.538342089991171E-01    0.229566563248707E+00    0.273678200078878E+00
   -0.687805058900052E+00   -0.247318394677130E+00   -0.294841078525490E+00
    0.740991373528961E+00   -0.587483804893986E-15   -0.759962278995345E-15
    0.186195874228540E-15    0.204804213287266E-15   -0.407696386642349E-15
    0.128526802300542E-15    0.261378322777099E-14    0.607243932709590E-14
    0.480789249106929E-15   -0.317844221906884E-14    0.435260188372921E-14
   -0.234806962806019E-14    0.110137329277256E+00    0.131300419414490E+00
   -0.329982777886434E+00    0.110137329277257E+00    0.205432810138105E-15
    0.110137329277256E+00    0.131300419414490E+00   -0.329982777886433E+00
    0.131300419414490E+00   -0.329982777886433E+00
   -0.121061089855892E+00   -0.114001547867212E+01    0.701833985698982E+01
   -0.112837597203122E+01   -0.939937424575260E-15    0.768418355814608E-15
   -0.113595041002442E-14    0.240836621117008E-14   -0.204210542998223E-14
    0.430695817767193E-14    0.526152641455911E-15   -0.323984382118852E-15
   -0.552751522202939E-15   -0.189751883835435E+00   -0.103995605871003E-15
    0.100975075811654E-15   -0.189751883835435E+00    0.112339299831205E-15
   -0.189751883835435E+00   -0.235171513781457E+01    0.100687395688761E-14
   -0.237422097669323E-15   -0.235171513781457E+01   -0.507178878357575E-15
   -0.235171513781458E+01   -0.197712450238277E-14    0.141824898362339E-14
   -0.192427599675136E-14   -0.199527321449622E-14    0.467839729038452E-17
   -0.200210051334484E-14    0.143695951855306E-14   -0.193724976445432E-14
    0.142543609692071E-14   -0.193735813519018E-14
   -0.942269054512160E-16   -0.168360125738469E-15    0.564883735034357E-15
   -0.596958502894880E-16    0.320177463650876E-13    0.232255478146183E-13
    0.146429469517436E-13   -0.128544934395546E-12   -0.935454510597705E-13
   -0.604763665562524E-13    0.474704549334791E-14    0.413355505944123E-14
    0.178483710503737E-14   -0.427996163717936E-16    0.183022352365072E-15
    0.102613349598929E-14    0.372801407400545E-16   -0.380294760061964E-15
    0.575941985991757E-17   -0.326374239144571E-15   -0.218159688065548E-15
   -0.826470855832688E-15   -0.840093902526779E-16    0.656865979549087E-15
   -0.418145426935612E-16   -0.515807658464646E+00   -0.303180286104076E+00
   -0.837526356172334E+00    0.705007797255929E+00   -0.826986608116220E+00
    0.842415178138364E+00   -0.316848309291211E+00    0.152603583719555E+01
    0.125372521397796E+01   -0.229503160341017E+00
   -0.547238901035285E-16   -0.604827712282831E-16    0.217587153121743E-15
   -0.732142733208521E-17    0.205726211485391E-13    0.113057050641816E-13
   -0.141240334315443E-13   -0.835075778270250E-13   -0.485179960334894E-13
    0.574169994643204E-13    0.304724704307481E-14    0.147667996837914E-14
   -0.235184231073324E-14    0.444099165083826E-15   -0.343354585521135E-15
    0.595695889112192E-15   -0.813717971664482E-15   -0.134371113663523E-14
    0.378588361384597E-15   -0.267551952732433E-15   -0.140714243358118E-15
   -0.617025205510087E-15    0.266459503479058E-15    0.340103754747706E-15
   -0.188474368363069E-15   -0.288697764583757E+00   -0.542787342298679E+00
    0.159592977305442E+00    0.147480159160548E+00    0.298633400047086E+01
    0.718613134590953E+00   -0.160890058203797E+00   -0.813058029556425E+00
    0.102545751691021E+01    0.217821684083609E+00
   -0.209894221595227E-16    0.291463404885338E-16    0.516377179523735E-16
    0.167416778960802E-17    0.197412002933165E-14    0.761878039523466E-14
   -0.117456490841246E-13   -0.539284970482531E-14   -0.296789757864892E-13
    0.526426957678565E-13    0.369364295009376E-15    0.138567086055340E-14
   -0.149435188452852E-14   -0.685566470001720E-15   -0.231796868206667E-15
   -0.368902126046016E-15    0.784570006147894E-15   -0.469609916172026E-15
   -0.123594705336846E-15    0.124482592051122E-15    0.116774491277401E-15
    0.237757878328384E-15   -0.333664772680787E-15   -0.166110606762171E-15
    0.131025306441410E-15   -0.379428602302938E-01    0.143748410423906E+00
    0.251629298168502E+00   -0.169854270208819E+01   -0.124288962166819E+01
    0.181237128277909E+01   -0.111101624728633E+00   -0.597311759634376E+00
    0.189556463762073E+00    0.115227487155242E+00
   -0.108825180489870E-16    0.165943438512137E-16    0.823378491272776E-16
   -0.861682849230561E-17    0.296695171954889E-14    0.981815055604937E-14
   -0.662658522557677E-14   -0.115600384274604E-13   -0.376007989506400E-13
    0.252348498265619E-13    0.561722606614859E-15    0.146793957427389E-14
   -0.143649196185956E-14   -0.471513647530009E-15    0.643209176183766E-15
   -0.952536314158900E-15    0.451743361449580E-15   -0.783069870074517E-18
   -0.181092744820776E-16    0.555605124562884E-15   -0.232807192258303E-15
    0.385186468054464E-15   -0.476470956265352E-15   -0.425710283316905E-16
   -0.171445729424248E-15   -0.422235535248710E-01    0.146641845564017E+01
   -0.111635508123433E+01   -0.443582816135163E+00    0.163406027082895E+01
    0.570253476709807E+00   -0.973548586323612E-01    0.904719707507861E+00
   -0.117435387974298E+01    0.705451245754676E-01
   -0.655107087159320E-16    0.984930060083470E-16    0.869265348248535E-16
   -0.342135179991441E-16    0.336005143090054E-13    0.141276521167267E-13
    0.323503154093142E-13   -0.138224593754607E-12   -0.564687887546575E-13
   -0.131220676805505E-12    0.527856897130553E-14    0.239926105810582E-14
    0.485069315279716E-14   -0.351187782313642E-15   -0.705659503907078E-15
    0.331476151441036E-15    0.456251552702827E-15   -0.770162273483365E-15
   -0.104626211860243E-15    0.505770811084150E-15    0.122204921794942E-15
   -0.550999677215013E-15   -0.751760361238500E-15   -0.327503009323637E-15
    0.809002700241313E-16   -0.494452095006210E+00    0.993912566334255E+00
    0.180103346019126E+01    0.875370611733484E+00    0.453729182965817E-01
    0.607985673285526E+00   -0.166279563887279E+00   -0.948391366353563E-02
   -0.495073874672263E+00   -0.597183182175787E+00
    0.497366366499936E-16   -0.174953701982242E-15    0.123146624407157E-15
   -0.420137998250510E-16   -0.366391540016827E-13   -0.520897799508834E-15
    0.405042901499332E-13    0.150941219492422E-12   -0.131589786973827E-14
   -0.161478458966513E-12   -0.589167449028254E-14   -0.392382562768745E-15
    0.642509512040746E-14    0.108991077057149E-15   -0.112424962281628E-15
   -0.674462189428323E-15   -0.217052255621866E-15    0.174102810857939E-15
    0.101025782888312E-15    0.417269865762107E-15   -0.468855941999299E-15
   -0.522973732979250E-17   -0.303929669931667E-15   -0.532761770217471E-15
   -0.438484315606779E-16    0.540069296125988E+00   -0.468221207813964E+00
    0.847972158214612E+00   -0.126474994087856E+01    0.105338457421487E+01
   -0.355457947499824E+00    0.433628334648036E-02    0.129272364314665E+01
    0.455212357774529E+00   -0.713565267120272E+00
   -0.181993362042487E-15    0.130700989618659E-15    0.647481470070450E-15
   -0.583395164102400E-16   -0.169383465283655E-13    0.625617707772119E-13
   -0.821430284348038E-14    0.689710786474019E-13   -0.250585857051841E-12
    0.323301477956953E-13   -0.272878568868447E-14    0.975001604555018E-14
   -0.945996320978090E-15   -0.110787841501111E-14    0.109531798580327E-14
    0.125731195236650E-14   -0.348683756365830E-16   -0.251669162555381E-14
    0.832931218907048E-15    0.382794870422724E-15   -0.348509073653742E-15
   -0.766456335058285E-15   -0.286321277334940E-15    0.117663621681598E-14
   -0.730992503156974E-15    0.333490407964756E+00    0.149509987413994E+01
    0.271183956333596E-01   -0.183124171087190E+00   -0.267015063933638E+00
   -0.817347052807267E+00   -0.907872403938848E+00   -0.404509350509690E+00
    0.122851733767729E+01    0.125796984958747E+00
   -0.396597431736057E-16    0.310955580102143E-15   -0.358886850328088E-15
    0.640347002341875E-16   -0.518443400377364E+00    0.174319711453597E+00
    0.687557999793606E-02    0.538628899305277E+01   -0.181106817521691E+01
   -0.714327944705263E-01    0.479600201207824E-01   -0.161259201345400E-01
   -0.636044271764263E-03    0.193771246229044E-12    0.676998123768502E-14
    0.155316511496419E-12   -0.263060770857628E-14   -0.139907927192370E-12
   -0.191318262346661E-12   -0.859160687281149E-13   -0.203204335334765E-14
   -0.683272620602633E-13    0.115405608008745E-14    0.614568903759239E-13
    0.849855567598071E-13   -0.340592568085076E+01    0.114519729923491E+01
    0.451692787846907E-01   -0.340592568085071E+01    0.181848416909117E-16
   -0.340592568085071E+01    0.114519729923492E+01    0.451692787846868E-01
    0.114519729923490E+01    0.451692787846909E-01
   -0.162904881369341E-15    0.336752948157341E-15    0.352389580457040E-15
   -0.362675336440634E-16    0.339259634285181E-01    0.121889277074940E+00
   -0.532174997473567E+00   -0.352468646067699E+00   -0.126635013774322E+01
    0.552895133621801E+01   -0.313841373516250E-02   -0.112756998676592E-01
    0.492302989449492E-01   -0.431305747253200E-12    0.946500509765398E-13
   -0.313136816710399E-12    0.136665605531613E-12    0.247841330463246E-12
    0.294315227397335E-12    0.190434845688238E-12   -0.413810654109925E-13
    0.138338733356283E-12   -0.605929934893391E-13   -0.109603073836680E-12
   -0.130357147520592E-12    0.222877386431558E+00    0.800754371080262E+00
   -0.349613571950694E+01    0.222877386431562E+00   -0.113693129289541E-14
    0.222877386431552E+00    0.800754371080273E+00   -0.349613571950693E+01
    0.800754371080261E+00   -0.349613571950698E+01
    0.113461916924049E-14   -0.149991449733993E-14   -0.271665672930294E-14
    0.319176809454130E-15   -0.171124704256933E+00   -0.503958170019372E+00
   -0.126335637332056E+00    0.177787413304448E+01    0.523579689153848E+01
    0.131254492254445E+01    0.158303572836528E-01    0.466200243972128E-01
    0.116870225448105E-01    0.380646275824401E-12   -0.182168895942975E-12
   -0.336527468800696E-12    0.285721864344270E-12    0.341462528088204E-12
   -0.665080298305909E-12   -0.166652536723017E-12    0.800811207353755E-13
    0.148675228561943E-12   -0.124578402029338E-12   -0.150502835397082E-12
    0.294822738250651E-12   -0.112420762697037E+01   -0.331076463138349E+01
   -0.829964835665211E+00   -0.112420762697035E+01    0.506005890078947E-14
   -0.112420762697036E+01   -0.331076463138354E+01   -0.829964835665212E+00
   -0.331076463138349E+01   -0.829964835665223E+00
    0.108617624953185E-13   -0.107132995595553E-13   -0.177550375363570E-13
    0.213780921450982E-14    0.596202428532145E-13    0.596819803715276E-13
   -0.952944275018958E-13   -0.625869752424072E-12   -0.616177066061135E-12
    0.998189418500459E-12   -0.522641509604151E-14   -0.549453679978293E-14
    0.977120624194756E-14    0.934690489340648E+00    0.743907553954914E+00
   -0.244881385449741E+00   -0.876384891313155E+00    0.428605836448987E+00
   -0.583055980274880E-01   -0.412798384757177E+00   -0.328540666865972E+00
    0.108149854442259E+00    0.387048195830988E+00   -0.189290250624518E+00
    0.257501889262136E-01    0.395697203297854E-12    0.392429592493776E-12
   -0.631370786924662E-12    0.395648669915434E-12   -0.211652264137829E-14
    0.397006303539419E-12    0.388669820857481E-12   -0.632336303083168E-12
    0.390027841941738E-12   -0.632150633004570E-12
    0.115857328410600E-13   -0.150326752661395E-13   -0.117398187055762E-13
    0.963138428730801E-15   -0.781657505724969E-13   -0.212625980033789E-13
    0.889469043945551E-13    0.815650378941237E-12    0.224090533295837E-12
   -0.928946210430117E-12    0.702810854177169E-14    0.239309527957989E-14
   -0.914064333058071E-14   -0.198838173853059E+00   -0.103421555626921E+01
   -0.225736540839029E+00   -0.283967391901853E+00    0.150338003780378E+01
    0.482805565754919E+00    0.878152478608400E-01    0.456752813885851E+00
    0.996946909182300E-01    0.125411868460857E+00   -0.663955457297293E+00
   -0.213227116321676E+00   -0.515881904834381E-12   -0.139199885617919E-12
    0.587875671158372E-12   -0.515875967813484E-12    0.140689318461695E-15
   -0.515383933911751E-12   -0.143175030126725E-12    0.587381508374789E-12
   -0.139792268530812E-12    0.588270872320092E-12
    0.198654076020404E-15   -0.134432719834891E-14   -0.559690064422224E-15
   -0.314736384266036E-16    0.133322537609600E-13   -0.612963899243537E-13
   -0.815405277330530E-13   -0.133492537389868E-12    0.647481703852565E-12
    0.844440622485822E-12   -0.117389318444453E-14    0.669864606271611E-14
    0.738145078051212E-14    0.203210958139775E-01    0.266456981553974E+00
    0.194732259023506E+01   -0.221033125287619E-01    0.471579277250791E+00
    0.178221671478603E-02   -0.897464521589651E-02   -0.117678539417200E+00
   -0.860019042685741E+00    0.976174660351265E-02   -0.208269118124236E+00
   -0.787101387614958E-03    0.846989596062768E-13   -0.410070652657014E-12
   -0.532974889029006E-12    0.820308911619181E-13    0.125318569599696E-14
    0.846501954615785E-13   -0.409803055641196E-12   -0.532983310762811E-12
   -0.412607361268182E-12   -0.533987854080486E-12
    0.318263782041309E-14   -0.659490729218197E-14   -0.309996397562584E-14
    0.313346252407363E-15   -0.841530909116376E-13   -0.614623365674796E-13
    0.141160198699886E-12    0.871221019434798E-12    0.632285544659432E-12
   -0.145768003664525E-11    0.759910676980264E-14    0.574132890057419E-14
   -0.129488248783360E-13   -0.537583805991770E+00    0.153333072597240E+01
   -0.394509271062747E+00    0.323114536143023E+00    0.837691738085100E+00
    0.214469269848753E+00    0.237419476624363E+00   -0.677182932958344E+00
    0.174231782310439E+00   -0.142700883482291E+00   -0.369959682215128E+00
   -0.947185931420664E-01   -0.551144653631735E-12   -0.400770637436085E-12
    0.922778141567975E-12   -0.549017801131065E-12    0.177777543199125E-14
   -0.549864678565222E-12   -0.399725675032336E-12    0.920343436522475E-12
   -0.398196544704614E-12    0.921030030132452E-12
    0.318420160566291E-13   -0.419258305895288E-13   -0.382246331008707E-13
    0.369231604848311E-14   -0.157220544247151E-12   -0.298977580530704E-12
   -0.460683698468429E-14    0.163872632329652E-11    0.311229319851484E-11
    0.478003675971208E-13    0.136648677995031E-13    0.278326074974043E-13
    0.580991267866968E-15   -0.399785063323269E+00    0.205324775936019E+00
    0.169216586951473E+00   -0.639406603988390E+00   -0.848110843940828E+00
    0.103919166731168E+01    0.176561792670357E+00   -0.906800024431709E-01
   -0.747331170738318E-01    0.282388679824592E+00    0.374561194819469E+00
   -0.458950472494886E+00   -0.103605544090371E-11   -0.197034298850174E-11
   -0.297352262923431E-13   -0.103596491979366E-11   -0.201274291127947E-14
   -0.103497370270298E-11   -0.196660915228528E-11   -0.289270316428343E-13
   -0.197164389700096E-11   -0.302398491840667E-13
   -0.198644795639849E+01    0.909861595072999E+00    0.418268732770751E+01
   -0.616644318763053E+00    0.130009501971313E-14   -0.114037933433881E-14
   -0.209688303099464E-14   -0.374637819200730E-14    0.522051922355280E-14
    0.743136115168396E-14    0.276505415036224E-15   -0.246778889498525E-15
   -0.380968961043128E-15    0.366848488327479E-01    0.187817465068757E-14
   -0.818457351742056E-15    0.366848488327364E-01   -0.812828499446941E-15
    0.366848488327643E-01   -0.170118305025513E+01   -0.721277326274421E-15
    0.361429002780043E-15   -0.170118305025513E+01    0.399690643804694E-15
   -0.170118305025514E+01    0.215356700567212E-14   -0.288590403585887E-14
   -0.393874687388419E-14    0.193509973347854E-14    0.253555722547586E-16
    0.196309480707250E-14   -0.276845354419306E-14   -0.386155687502041E-14
   -0.285578128437695E-14   -0.391297076121495E-14
    0.388120558335619E-14   -0.889699947404810E-14   -0.898702175618126E-14
    0.123210165362445E-14   -0.607388513933774E+01   -0.781724470496154E-01
    0.236224562081048E+00    0.207435290698177E+02    0.266974496657884E+00
   -0.806753989929330E+00   -0.114306190721449E+01   -0.147114975614897E-01
    0.444557795000898E-01    0.334696315025900E-14   -0.446151510702929E-15
    0.595373966447153E-15    0.336337144226377E-14    0.310495786845665E-15
    0.332632676427100E-14    0.388607014512700E-14    0.436813983820166E-15
   -0.397019862889181E-15    0.388673241494691E-14   -0.255370283483109E-15
    0.404455495455296E-14   -0.108868867422411E+02   -0.140117002193721E+00
    0.423411044844399E+00   -0.108868867422410E+02    0.717258500165485E-15
   -0.108868867422410E+02   -0.140117002193726E+00    0.423411044844396E+00
   -0.140117002193722E+00    0.423411044844401E+00
   -0.730986990315208E-15    0.285015517298286E-14   -0.128138288800959E-14
    0.733847220545138E-15   -0.248759994196055E+00    0.203779233978836E+01
   -0.572184537594861E+01    0.849564990551695E+00   -0.695946723866772E+01
    0.195412430703182E+02   -0.468148585100535E-01    0.383497999219578E+00
   -0.107681053200347E+01   -0.865709925718720E-15    0.764443027562689E-15
   -0.445984121820619E-15   -0.954669319879092E-15    0.170882011044255E-15
   -0.105972073951602E-14    0.118658372662155E-15   -0.562395612020161E-15
    0.202213622133972E-15    0.171473172888304E-15   -0.528619071187551E-16
    0.728100865199629E-16   -0.445879666915842E+00    0.365255744857584E+01
   -0.102558874814943E+02   -0.445879666915834E+00   -0.675768495766842E-15
   -0.445879666915842E+00    0.365255744857587E+01   -0.102558874814943E+02
    0.365255744857584E+01   -0.102558874814943E+02
    0.306795811656753E-14   -0.450853108716593E-14   -0.982695637229811E-14
    0.164253079833065E-14   -0.560718250900614E-02   -0.572671678272111E+01
   -0.203928347982378E+01    0.191496465124127E-01    0.195578798959542E+02
    0.696455977926774E+01   -0.105523179740997E-02   -0.107772729604961E+01
   -0.383778621149976E+00    0.253802950856936E-14    0.634986056648464E-16
    0.987882396158651E-15    0.162125141579202E-14    0.432263788351725E-15
    0.215835765671754E-14    0.333431954535454E-14    0.711516261538339E-16