#P rhf/6-31g* use=l310 test scf=conventional

Gaussian Test Job 08
TEST LINK 310 (GENL2E); WATER 6-31G*, STANDARD MODEL

0 1
O
H 1 0.96
H 1 0.96 2 109.471221


