#p rhf sto-3g freq=(cubic,step=10) scrf test

Gaussian Test Job 220:
HF scrf/sto-3g freq=cubic

0 1
F
H 1 r1

r1 1.000 

1.5  100.0

