#p mp2/6-31g* density=current pop=mk iop(6/50=1)

Gaussian Test Job 963:
Formaldehyde write of antechamber file

0 1
 C
 O,1,CO
 H,1,CH,2,HCO
 H,1,CH,2,HCO,3,180.,0
      Variables:
 CO=1.21672007
 CH=1.10138236
 HCO=122.73743006

test0963.esp

