#p hf/sto-3g irc(calcfc) use=l123 test

Gaussian Test Job 735: 
HPC job of the full path for HCN --> HNC using L123

0 1
 C                  0.08200300    0.63610800    0.00000000
 H                 -1.06604300    0.28008300    0.00000000
 N                  0.08200300   -0.58524700    0.00000000

