#P TEST FORCE RHF/6-31G*

Gaussian Test Job 48
MEOH Forces STD MOD 6-31G*

0 1
C
O 1 CO
H 1 CH 2 T
H 1 CH 2 T 3 T 1
H 1 CH 2 T 3 T -1
H 2 OH 1 T 3 180.

CO 1.43
CH 1.09
OH 0.96
T 109.471221

